HFVRP/X204-FSMD.vrp
NAME: X204-FSMD
COMMENT: Generated by Uchoa, Pecin, Pessoa, Poggi, Subramanian, and Vidal (2013). Modified by Sadykov, Pessoa and Uchoa (2017). Converted to PyVRP's VRPLIB dialect.
TYPE: HFVRP
DIMENSION: 204
VEHICLES: 1015
EDGE_WEIGHT_TYPE: EUC_2D
NODE_COORD_SECTION
1	500	500
2	221	542
3	320	456
4	576	827
5	679	994
6	371	461
7	961	844
8	986	379
9	175	540
10	126	517
11	329	626
12	477	890
13	191	356
14	584	917
15	308	653
16	0	7
17	273	302
18	672	381
19	235	415
20	583	149
21	672	124
22	644	646
23	400	544
24	832	999
25	842	964
26	582	965
27	544	311
28	429	2
29	939	849
30	898	605
31	363	130
32	639	874
33	323	201
34	829	350
35	7	53
36	801	92
37	57	330
38	943	0
39	579	275
40	833	402
41	408	940
42	635	871
43	631	630
44	733	313
45	344	619
46	628	291
47	674	92
48	74	602
49	38	354
50	473	107
51	668	279
52	510	811
53	366	16
54	49	182
55	528	946
56	271	745
57	405	872
58	65	893
59	622	488
60	668	978
61	939	73
62	556	632
63	270	446
64	586	348
65	951	167
66	385	308
67	247	997
68	992	460
69	128	590
70	746	847
71	279	459
72	428	183
73	364	167
74	656	687
75	547	792
76	517	152
77	252	618
78	464	284
79	184	96
80	457	269
81	590	47
82	348	609
83	777	112
84	528	198
85	877	457
86	812	650
87	864	723
88	584	875
89	817	233
90	186	909
91	439	447
92	560	994
93	818	658
94	134	903
95	447	951
96	969	519
97	488	401
98	142	666
99	287	534
100	399	181
101	141	22
102	29	248
103	313	643
104	20	974
105	294	475
106	439	214
107	327	361
108	79	657
109	110	653
110	332	440
111	242	943
112	96	492
113	62	541
114	478	199
115	267	486
116	184	686
117	119	370
118	342	587
119	316	552
120	90	370
121	417	225
122	111	575
123	458	221
124	321	337
125	287	454
126	364	560
127	121	609
128	215	488
129	351	232
130	84	585
131	14	718
132	344	337
133	233	472
134	216	497
135	133	584
136	188	327
137	175	352
138	281	702
139	247	645
140	215	837
141	424	677
142	438	666
143	454	547
144	354	242
145	96	387
146	462	532
147	25	980
148	343	658
149	127	368
150	100	613
151	245	363
152	356	488
153	259	410
154	480	270
155	196	492
156	303	336
157	243	888
158	453	226
159	32	993
160	287	528
161	492	238
162	54	698
163	442	195
164	17	930
165	285	277
166	75	932
167	167	560
168	368	360
169	155	710
170	328	277
171	355	399
172	53	641
173	236	522
174	421	346
175	308	118
176	82	739
177	345	467
178	408	363
179	101	658
180	419	188
181	36	952
182	250	337
183	232	388
184	498	308
185	18	945
186	362	702
187	429	256
188	105	507
189	245	521
190	576	280
191	269	485
192	257	647
193	106	618
194	269	505
195	423	470
196	206	467
197	126	669
198	228	795
199	241	305
200	137	433
201	210	392
202	371	627
203	219	344
204	96	427
DEMAND_SECTION
1	0
2	61
3	96
4	52
5	58
6	81
7	76
8	51
9	98
10	65
11	84
12	63
13	79
14	89
15	70
16	93
17	84
18	100
19	70
20	52
21	86
22	69
23	50
24	59
25	79
26	53
27	66
28	65
29	70
30	74
31	86
32	77
33	83
34	50
35	76
36	62
37	73
38	54
39	100
40	99
41	59
42	73
43	74
44	97
45	63
46	83
47	97
48	81
49	61
50	91
51	78
52	87
53	56
54	81
55	91
56	62
57	53
58	82
59	77
60	94
61	99
62	92
63	76
64	83
65	89
66	61
67	53
68	94
69	84
70	55
71	54
72	61
73	86
74	53
75	60
76	55
77	82
78	86
79	60
80	71
81	98
82	67
83	93
84	63
85	64
86	96
87	85
88	64
89	95
90	71
91	69
92	94
93	79
94	68
95	50
96	97
97	83
98	72
99	99
100	88
101	72
102	84
103	88
104	54
105	83
106	83
107	62
108	80
109	68
110	99
111	57
112	75
113	51
114	54
115	85
116	71
117	92
118	64
119	80
120	78
121	61
122	98
123	61
124	52
125	92
126	55
127	55
128	83
129	73
130	56
131	80
132	82
133	71
134	93
135	93
136	92
137	58
138	88
139	50
140	58
141	54
142	73
143	82
144	59
145	80
146	81
147	74
148	99
149	70
150	89
151	69
152	68
153	61
154	88
155	75
156	60
157	72
158	54
159	86
160	55
161	66
162	94
163	69
164	65
165	63
166	84
167	66
168	89
169	71
170	95
171	95
172	80
173	74
174	61
175	79
176	87
177	90
178	72
179	81
180	86
181	85
182	71
183	100
184	99
185	51
186	68
187	80
188	55
189	52
190	68
191	87
192	79
193	71
194	58
195	87
196	78
197	83
198	57
199	52
200	57
201	78
202	80
203	66
204	84
CAPACITY_SECTION
1	282
2	282
3	282
4	282
5	282
6	282
7	282
8	282
9	282
10	282
11	282
12	282
13	282
14	282
15	282
16	282
17	282
18	282
19	282
20	282
21	282
22	282
23	282
24	282
25	282
26	282
27	282
28	282
29	282
30	282
31	282
32	282
33	282
34	282
35	282
36	282
37	282
38	282
39	282
40	282
41	282
42	282
43	282
44	282
45	282
46	282
47	282
48	282
49	282
50	282
51	282
52	282
53	282
54	282
55	282
56	282
57	282
58	282
59	282
60	282
61	282
62	282
63	282
64	282
65	282
66	282
67	282
68	282
69	282
70	282
71	282
72	282
73	282
74	282
75	282
76	282
77	282
78	282
79	282
80	282
81	282
82	282
83	282
84	282
85	282
86	282
87	282
88	282
89	282
90	282
91	282
92	282
93	282
94	282
95	282
96	282
97	282
98	282
99	282
100	282
101	282
102	282
103	282
104	282
105	282
106	282
107	282
108	282
109	282
110	282
111	282
112	282
113	282
114	282
115	282
116	282
117	282
118	282
119	282
120	282
121	282
122	282
123	282
124	282
125	282
126	282
127	282
128	282
129	282
130	282
131	282
132	282
133	282
134	282
135	282
136	282
137	282
138	282
139	282
140	282
141	282
142	282
143	282
144	282
145	282
146	282
147	282
148	282
149	282
150	282
151	282
152	282
153	282
154	282
155	282
156	282
157	282
158	282
159	282
160	282
161	282
162	282
163	282
164	282
165	282
166	282
167	282
168	282
169	282
170	282
171	282
172	282
173	282
174	282
175	282
176	282
177	282
178	282
179	282
180	282
181	282
182	282
183	282
184	282
185	282
186	282
187	282
188	282
189	282
190	282
191	282
192	282
193	282
194	282
195	282
196	282
197	282
198	282
199	282
200	282
201	282
202	282
203	282
204	441
205	441
206	441
207	441
208	441
209	441
210	441
211	441
212	441
213	441
214	441
215	441
216	441
217	441
218	441
219	441
220	441
221	441
222	441
223	441
224	441
225	441
226	441
227	441
228	441
229	441
230	441
231	441
232	441
233	441
234	441
235	441
236	441
237	441
238	441
239	441
240	441
241	441
242	441
243	441
244	441
245	441
246	441
247	441
248	441
249	441
250	441
251	441
252	441
253	441
254	441
255	441
256	441
257	441
258	441
259	441
260	441
261	441
262	441
263	441
264	441
265	441
266	441
267	441
268	441
269	441
270	441
271	441
272	441
273	441
274	441
275	441
276	441
277	441
278	441
279	441
280	441
281	441
282	441
283	441
284	441
285	441
286	441
287	441
288	441
289	441
290	441
291	441
292	441
293	441
294	441
295	441
296	441
297	441
298	441
299	441
300	441
301	441
302	441
303	441
304	441
305	441
306	441
307	441
308	441
309	441
310	441
311	441
312	441
313	441
314	441
315	441
316	441
317	441
318	441
319	441
320	441
321	441
322	441
323	441
324	441
325	441
326	441
327	441
328	441
329	441
330	441
331	441
332	441
333	441
334	441
335	441
336	441
337	441
338	441
339	441
340	441
341	441
342	441
343	441
344	441
345	441
346	441
347	441
348	441
349	441
350	441
351	441
352	441
353	441
354	441
355	441
356	441
357	441
358	441
359	441
360	441
361	441
362	441
363	441
364	441
365	441
366	441
367	441
368	441
369	441
370	441
371	441
372	441
373	441
374	441
375	441
376	441
377	441
378	441
379	441
380	441
381	441
382	441
383	441
384	441
385	441
386	441
387	441
388	441
389	441
390	441
391	441
392	441
393	441
394	441
395	441
396	441
397	441
398	441
399	441
400	441
401	441
402	441
403	441
404	441
405	441
406	441
407	690
408	690
409	690
410	690
411	690
412	690
413	690
414	690
415	690
416	690
417	690
418	690
419	690
420	690
421	690
422	690
423	690
424	690
425	690
426	690
427	690
428	690
429	690
430	690
431	690
432	690
433	690
434	690
435	690
436	690
437	690
438	690
439	690
440	690
441	690
442	690
443	690
444	690
445	690
446	690
447	690
448	690
449	690
450	690
451	690
452	690
453	690
454	690
455	690
456	690
457	690
458	690
459	690
460	690
461	690
462	690
463	690
464	690
465	690
466	690
467	690
468	690
469	690
470	690
471	690
472	690
473	690
474	690
475	690
476	690
477	690
478	690
479	690
480	690
481	690
482	690
483	690
484	690
485	690
486	690
487	690
488	690
489	690
490	690
491	690
492	690
493	690
494	690
495	690
496	690
497	690
498	690
499	690
500	690
501	690
502	690
503	690
504	690
505	690
506	690
507	690
508	690
509	690
510	690
511	690
512	690
513	690
514	690
515	690
516	690
517	690
518	690
519	690
520	690
521	690
522	690
523	690
524	690
525	690
526	690
527	690
528	690
529	690
530	690
531	690
532	690
533	690
534	690
535	690
536	690
537	690
538	690
539	690
540	690
541	690
542	690
543	690
544	690
545	690
546	690
547	690
548	690
549	690
550	690
551	690
552	690
553	690
554	690
555	690
556	690
557	690
558	690
559	690
560	690
561	690
562	690
563	690
564	690
565	690
566	690
567	690
568	690
569	690
570	690
571	690
572	690
573	690
574	690
575	690
576	690
577	690
578	690
579	690
580	690
581	690
582	690
583	690
584	690
585	690
586	690
587	690
588	690
589	690
590	690
591	690
592	690
593	690
594	690
595	690
596	690
597	690
598	690
599	690
600	690
601	690
602	690
603	690
604	690
605	690
606	690
607	690
608	690
609	690
610	1079
611	1079
612	1079
613	1079
614	1079
615	1079
616	1079
617	1079
618	1079
619	1079
620	1079
621	1079
622	1079
623	1079
624	1079
625	1079
626	1079
627	1079
628	1079
629	1079
630	1079
631	1079
632	1079
633	1079
634	1079
635	1079
636	1079
637	1079
638	1079
639	1079
640	1079
641	1079
642	1079
643	1079
644	1079
645	1079
646	1079
647	1079
648	1079
649	1079
650	1079
651	1079
652	1079
653	1079
654	1079
655	1079
656	1079
657	1079
658	1079
659	1079
660	1079
661	1079
662	1079
663	1079
664	1079
665	1079
666	1079
667	1079
668	1079
669	1079
670	1079
671	1079
672	1079
673	1079
674	1079
675	1079
676	1079
677	1079
678	1079
679	1079
680	1079
681	1079
682	1079
683	1079
684	1079
685	1079
686	1079
687	1079
688	1079
689	1079
690	1079
691	1079
692	1079
693	1079
694	1079
695	1079
696	1079
697	1079
698	1079
699	1079
700	1079
701	1079
702	1079
703	1079
704	1079
705	1079
706	1079
707	1079
708	1079
709	1079
710	1079
711	1079
712	1079
713	1079
714	1079
715	1079
716	1079
717	1079
718	1079
719	1079
720	1079
721	1079
722	1079
723	1079
724	1079
725	1079
726	1079
727	1079
728	1079
729	1079
730	1079
731	1079
732	1079
733	1079
734	1079
735	1079
736	1079
737	1079
738	1079
739	1079
740	1079
741	1079
742	1079
743	1079
744	1079
745	1079
746	1079
747	1079
748	1079
749	1079
750	1079
751	1079
752	1079
753	1079
754	1079
755	1079
756	1079
757	1079
758	1079
759	1079
760	1079
761	1079
762	1079
763	1079
764	1079
765	1079
766	1079
767	1079
768	1079
769	1079
770	1079
771	1079
772	1079
773	1079
774	1079
775	1079
776	1079
777	1079
778	1079
779	1079
780	1079
781	1079
782	1079
783	1079
784	1079
785	1079
786	1079
787	1079
788	1079
789	1079
790	1079
791	1079
792	1079
793	1079
794	1079
795	1079
796	1079
797	1079
798	1079
799	1079
800	1079
801	1079
802	1079
803	1079
804	1079
805	1079
806	1079
807	1079
808	1079
809	1079
810	1079
811	1079
812	1079
813	1689
814	1689
815	1689
816	1689
817	1689
818	1689
819	1689
820	1689
821	1689
822	1689
823	1689
824	1689
825	1689
826	1689
827	1689
828	1689
829	1689
830	1689
831	1689
832	1689
833	1689
834	1689
835	1689
836	1689
837	1689
838	1689
839	1689
840	1689
841	1689
842	1689
843	1689
844	1689
845	1689
846	1689
847	1689
848	1689
849	1689
850	1689
851	1689
852	1689
853	1689
854	1689
855	1689
856	1689
857	1689
858	1689
859	1689
860	1689
861	1689
862	1689
863	1689
864	1689
865	1689
866	1689
867	1689
868	1689
869	1689
870	1689
871	1689
872	1689
873	1689
874	1689
875	1689
876	1689
877	1689
878	1689
879	1689
880	1689
881	1689
882	1689
883	1689
884	1689
885	1689
886	1689
887	1689
888	1689
889	1689
890	1689
891	1689
892	1689
893	1689
894	1689
895	1689
896	1689
897	1689
898	1689
899	1689
900	1689
901	1689
902	1689
903	1689
904	1689
905	1689
906	1689
907	1689
908	1689
909	1689
910	1689
911	1689
912	1689
913	1689
914	1689
915	1689
916	1689
917	1689
918	1689
919	1689
920	1689
921	1689
922	1689
923	1689
924	1689
925	1689
926	1689
927	1689
928	1689
929	1689
930	1689
931	1689
932	1689
933	1689
934	1689
935	1689
936	1689
937	1689
938	1689
939	1689
940	1689
941	1689
942	1689
943	1689
944	1689
945	1689
946	1689
947	1689
948	1689
949	1689
950	1689
951	1689
952	1689
953	1689
954	1689
955	1689
956	1689
957	1689
958	1689
959	1689
960	1689
961	1689
962	1689
963	1689
964	1689
965	1689
966	1689
967	1689
968	1689
969	1689
970	1689
971	1689
972	1689
973	1689
974	1689
975	1689
976	1689
977	1689
978	1689
979	1689
980	1689
981	1689
982	1689
983	1689
984	1689
985	1689
986	1689
987	1689
988	1689
989	1689
990	1689
991	1689
992	1689
993	1689
994	1689
995	1689
996	1689
997	1689
998	1689
999	1689
1000	1689
1001	1689
1002	1689
1003	1689
1004	1689
1005	1689
1006	1689
1007	1689
1008	1689
1009	1689
1010	1689
1011	1689
1012	1689
1013	1689
1014	1689
1015	1689
VEHICLES_UNIT_DISTANCE_COST_SECTION
1	58
2	58
3	58
4	58
5	58
6	58
7	58
8	58
9	58
10	58
11	58
12	58
13	58
14	58
15	58
16	58
17	58
18	58
19	58
20	58
21	58
22	58
23	58
24	58
25	58
26	58
27	58
28	58
29	58
30	58
31	58
32	58
33	58
34	58
35	58
36	58
37	58
38	58
39	58
40	58
41	58
42	58
43	58
44	58
45	58
46	58
47	58
48	58
49	58
50	58
51	58
52	58
53	58
54	58
55	58
56	58
57	58
58	58
59	58
60	58
61	58
62	58
63	58
64	58
65	58
66	58
67	58
68	58
69	58
70	58
71	58
72	58
73	58
74	58
75	58
76	58
77	58
78	58
79	58
80	58
81	58
82	58
83	58
84	58
85	58
86	58
87	58
88	58
89	58
90	58
91	58
92	58
93	58
94	58
95	58
96	58
97	58
98	58
99	58
100	58
101	58
102	58
103	58
104	58
105	58
106	58
107	58
108	58
109	58
110	58
111	58
112	58
113	58
114	58
115	58
116	58
117	58
118	58
119	58
120	58
121	58
122	58
123	58
124	58
125	58
126	58
127	58
128	58
129	58
130	58
131	58
132	58
133	58
134	58
135	58
136	58
137	58
138	58
139	58
140	58
141	58
142	58
143	58
144	58
145	58
146	58
147	58
148	58
149	58
150	58
151	58
152	58
153	58
154	58
155	58
156	58
157	58
158	58
159	58
160	58
161	58
162	58
163	58
164	58
165	58
166	58
167	58
168	58
169	58
170	58
171	58
172	58
173	58
174	58
175	58
176	58
177	58
178	58
179	58
180	58
181	58
182	58
183	58
184	58
185	58
186	58
187	58
188	58
189	58
190	58
191	58
192	58
193	58
194	58
195	58
196	58
197	58
198	58
199	58
200	58
201	58
202	58
203	58
204	78
205	78
206	78
207	78
208	78
209	78
210	78
211	78
212	78
213	78
214	78
215	78
216	78
217	78
218	78
219	78
220	78
221	78
222	78
223	78
224	78
225	78
226	78
227	78
228	78
229	78
230	78
231	78
232	78
233	78
234	78
235	78
236	78
237	78
238	78
239	78
240	78
241	78
242	78
243	78
244	78
245	78
246	78
247	78
248	78
249	78
250	78
251	78
252	78
253	78
254	78
255	78
256	78
257	78
258	78
259	78
260	78
261	78
262	78
263	78
264	78
265	78
266	78
267	78
268	78
269	78
270	78
271	78
272	78
273	78
274	78
275	78
276	78
277	78
278	78
279	78
280	78
281	78
282	78
283	78
284	78
285	78
286	78
287	78
288	78
289	78
290	78
291	78
292	78
293	78
294	78
295	78
296	78
297	78
298	78
299	78
300	78
301	78
302	78
303	78
304	78
305	78
306	78
307	78
308	78
309	78
310	78
311	78
312	78
313	78
314	78
315	78
316	78
317	78
318	78
319	78
320	78
321	78
322	78
323	78
324	78
325	78
326	78
327	78
328	78
329	78
330	78
331	78
332	78
333	78
334	78
335	78
336	78
337	78
338	78
339	78
340	78
341	78
342	78
343	78
344	78
345	78
346	78
347	78
348	78
349	78
350	78
351	78
352	78
353	78
354	78
355	78
356	78
357	78
358	78
359	78
360	78
361	78
362	78
363	78
364	78
365	78
366	78
367	78
368	78
369	78
370	78
371	78
372	78
373	78
374	78
375	78
376	78
377	78
378	78
379	78
380	78
381	78
382	78
383	78
384	78
385	78
386	78
387	78
388	78
389	78
390	78
391	78
392	78
393	78
394	78
395	78
396	78
397	78
398	78
399	78
400	78
401	78
402	78
403	78
404	78
405	78
406	78
407	100
408	100
409	100
410	100
411	100
412	100
413	100
414	100
415	100
416	100
417	100
418	100
419	100
420	100
421	100
422	100
423	100
424	100
425	100
426	100
427	100
428	100
429	100
430	100
431	100
432	100
433	100
434	100
435	100
436	100
437	100
438	100
439	100
440	100
441	100
442	100
443	100
444	100
445	100
446	100
447	100
448	100
449	100
450	100
451	100
452	100
453	100
454	100
455	100
456	100
457	100
458	100
459	100
460	100
461	100
462	100
463	100
464	100
465	100
466	100
467	100
468	100
469	100
470	100
471	100
472	100
473	100
474	100
475	100
476	100
477	100
478	100
479	100
480	100
481	100
482	100
483	100
484	100
485	100
486	100
487	100
488	100
489	100
490	100
491	100
492	100
493	100
494	100
495	100
496	100
497	100
498	100
499	100
500	100
501	100
502	100
503	100
504	100
505	100
506	100
507	100
508	100
509	100
510	100
511	100
512	100
513	100
514	100
515	100
516	100
517	100
518	100
519	100
520	100
521	100
522	100
523	100
524	100
525	100
526	100
527	100
528	100
529	100
530	100
531	100
532	100
533	100
534	100
535	100
536	100
537	100
538	100
539	100
540	100
541	100
542	100
543	100
544	100
545	100
546	100
547	100
548	100
549	100
550	100
551	100
552	100
553	100
554	100
555	100
556	100
557	100
558	100
559	100
560	100
561	100
562	100
563	100
564	100
565	100
566	100
567	100
568	100
569	100
570	100
571	100
572	100
573	100
574	100
575	100
576	100
577	100
578	100
579	100
580	100
581	100
582	100
583	100
584	100
585	100
586	100
587	100
588	100
589	100
590	100
591	100
592	100
593	100
594	100
595	100
596	100
597	100
598	100
599	100
600	100
601	100
602	100
603	100
604	100
605	100
606	100
607	100
608	100
609	100
610	121
611	121
612	121
613	121
614	121
615	121
616	121
617	121
618	121
619	121
620	121
621	121
622	121
623	121
624	121
625	121
626	121
627	121
628	121
629	121
630	121
631	121
632	121
633	121
634	121
635	121
636	121
637	121
638	121
639	121
640	121
641	121
642	121
643	121
644	121
645	121
646	121
647	121
648	121
649	121
650	121
651	121
652	121
653	121
654	121
655	121
656	121
657	121
658	121
659	121
660	121
661	121
662	121
663	121
664	121
665	121
666	121
667	121
668	121
669	121
670	121
671	121
672	121
673	121
674	121
675	121
676	121
677	121
678	121
679	121
680	121
681	121
682	121
683	121
684	121
685	121
686	121
687	121
688	121
689	121
690	121
691	121
692	121
693	121
694	121
695	121
696	121
697	121
698	121
699	121
700	121
701	121
702	121
703	121
704	121
705	121
706	121
707	121
708	121
709	121
710	121
711	121
712	121
713	121
714	121
715	121
716	121
717	121
718	121
719	121
720	121
721	121
722	121
723	121
724	121
725	121
726	121
727	121
728	121
729	121
730	121
731	121
732	121
733	121
734	121
735	121
736	121
737	121
738	121
739	121
740	121
741	121
742	121
743	121
744	121
745	121
746	121
747	121
748	121
749	121
750	121
751	121
752	121
753	121
754	121
755	121
756	121
757	121
758	121
759	121
760	121
761	121
762	121
763	121
764	121
765	121
766	121
767	121
768	121
769	121
770	121
771	121
772	121
773	121
774	121
775	121
776	121
777	121
778	121
779	121
780	121
781	121
782	121
783	121
784	121
785	121
786	121
787	121
788	121
789	121
790	121
791	121
792	121
793	121
794	121
795	121
796	121
797	121
798	121
799	121
800	121
801	121
802	121
803	121
804	121
805	121
806	121
807	121
808	121
809	121
810	121
811	121
812	121
813	147
814	147
815	147
816	147
817	147
818	147
819	147
820	147
821	147
822	147
823	147
824	147
825	147
826	147
827	147
828	147
829	147
830	147
831	147
832	147
833	147
834	147
835	147
836	147
837	147
838	147
839	147
840	147
841	147
842	147
843	147
844	147
845	147
846	147
847	147
848	147
849	147
850	147
851	147
852	147
853	147
854	147
855	147
856	147
857	147
858	147
859	147
860	147
861	147
862	147
863	147
864	147
865	147
866	147
867	147
868	147
869	147
870	147
871	147
872	147
873	147
874	147
875	147
876	147
877	147
878	147
879	147
880	147
881	147
882	147
883	147
884	147
885	147
886	147
887	147
888	147
889	147
890	147
891	147
892	147
893	147
894	147
895	147
896	147
897	147
898	147
899	147
900	147
901	147
902	147
903	147
904	147
905	147
906	147
907	147
908	147
909	147
910	147
911	147
912	147
913	147
914	147
915	147
916	147
917	147
918	147
919	147
920	147
921	147
922	147
923	147
924	147
925	147
926	147
927	147
928	147
929	147
930	147
931	147
932	147
933	147
934	147
935	147
936	147
937	147
938	147
939	147
940	147
941	147
942	147
943	147
944	147
945	147
946	147
947	147
948	147
949	147
950	147
951	147
952	147
953	147
954	147
955	147
956	147
957	147
958	147
959	147
960	147
961	147
962	147
963	147
964	147
965	147
966	147
967	147
968	147
969	147
970	147
971	147
972	147
973	147
974	147
975	147
976	147
977	147
978	147
979	147
980	147
981	147
982	147
983	147
984	147
985	147
986	147
987	147
988	147
989	147
990	147
991	147
992	147
993	147
994	147
995	147
996	147
997	147
998	147
999	147
1000	147
1001	147
1002	147
1003	147
1004	147
1005	147
1006	147
1007	147
1008	147
1009	147
1010	147
1011	147
1012	147
1013	147
1014	147
1015	147
DEPOT_SECTION
1
EOF
